
Gurobi 10.0.1 (linux64) logging started Sun Nov 26 15:37:22 2023

Set parameter LogFile to value "ArtificialInstance/ExperimentV2/S2T3K3/BaRo/gurobi1.txt"
Gurobi Optimizer version 10.0.1 build v10.0.1rc0 (linux64)

CPU model: AMD EPYC 7H12 64-Core Processor, instruction set [SSE2|AVX|AVX2]
Thread count: 128 physical cores, 128 logical processors, using up to 32 threads

Academic license 656792 - for non-commercial use only - registered to b.___@student.vu.nl
Optimize a model with 2052 rows, 3121 columns and 10722 nonzeros
Model fingerprint: 0xf5bff203
Variable types: 1 continuous, 3120 integer (3120 binary)
Coefficient statistics:
  Matrix range     [1e+00, 4e+01]
  Objective range  [1e+00, 2e+01]
  Bounds range     [1e+00, 1e+00]
  RHS range        [1e+00, 1e+00]
Presolve time: 0.02s
Presolved: 2052 rows, 3121 columns, 10722 nonzeros
Variable types: 1 continuous, 3120 integer (3120 binary)
Found heuristic solution: objective 275.7236610

Root relaxation: objective 3.985324e+01, 1777 iterations, 0.06 seconds (0.04 work units)

    Nodes    |    Current Node    |     Objective Bounds      |     Work
 Expl Unexpl |  Obj  Depth IntInf | Incumbent    BestBd   Gap | It/Node Time

     0     0   39.85324    0  336  275.72366   39.85324  85.5%     -    0s
H    0     0                     228.6278504   39.85324  82.6%     -    0s
H    0     0                      73.1119428   39.85324  45.5%     -    0s
     0     0   49.39385    0  465   73.11194   49.39385  32.4%     -    0s
H    0     0                      63.9019516   49.39385  22.7%     -    0s
     0     0   53.30523    0  482   63.90195   53.30523  16.6%     -    0s
     0     0   53.36898    0  474   63.90195   53.36898  16.5%     -    0s
     0     0   55.36738    0  574   63.90195   55.36738  13.4%     -    0s
H    0     0                      63.2415085   55.36738  12.5%     -    0s
     0     0   55.39866    0  562   63.24151   55.39866  12.4%     -    0s
     0     0   56.12355    0  475   63.24151   56.12355  11.3%     -    0s
     0     0   56.22316    0  568   63.24151   56.22316  11.1%     -    0s
     0     0   56.25878    0  600   63.24151   56.25878  11.0%     -    0s
     0     0   56.25878    0  609   63.24151   56.25878  11.0%     -    0s
     0     0   56.43580    0  573   63.24151   56.43580  10.8%     -    0s
     0     0   56.43828    0  514   63.24151   56.43828  10.8%     -    0s
     0     0   56.46143    0  608   63.24151   56.46143  10.7%     -    0s
     0     0   56.46918    0  610   63.24151   56.46918  10.7%     -    0s
     0     0   56.46918    0  611   63.24151   56.46918  10.7%     -    0s
     0     0   56.47755    0  587   63.24151   56.47755  10.7%     -    0s
     0     0   56.47755    0  544   63.24151   56.47755  10.7%     -    0s
     0     0   56.47755    0  335   63.24151   56.47755  10.7%     -    1s
     0     0   56.47755    0  552   63.24151   56.47755  10.7%     -    1s
     0     0   56.47755    0  484   63.24151   56.47755  10.7%     -    1s
     0     0   56.47755    0  535   63.24151   56.47755  10.7%     -    1s
     0     0   56.49941    0  575   63.24151   56.49941  10.7%     -    1s
     0     0   56.49941    0  577   63.24151   56.49941  10.7%     -    1s
     0     0   56.56481    0  584   63.24151   56.56481  10.6%     -    1s
     0     0   56.56481    0  584   63.24151   56.56481  10.6%     -    1s
     0     0   56.95340    0  552   63.24151   56.95340  9.94%     -    1s
     0     0   57.08180    0  571   63.24151   57.08180  9.74%     -    1s
     0     0   57.09864    0  559   63.24151   57.09864  9.71%     -    1s
     0     0   57.10894    0  529   63.24151   57.10894  9.70%     -    1s
     0     0   57.11367    0  589   63.24151   57.11367  9.69%     -    1s
     0     0   57.11961    0  580   63.24151   57.11961  9.68%     -    1s
     0     0   57.15848    0  585   63.24151   57.15848  9.62%     -    1s
     0     0   57.16973    0  613   63.24151   57.16973  9.60%     -    1s
     0     0   57.19167    0  571   63.24151   57.19167  9.57%     -    1s
     0     0   57.19817    0  572   63.24151   57.19817  9.56%     -    1s
     0     0   57.19954    0  576   63.24151   57.19954  9.55%     -    1s
     0     0   57.20102    0  572   63.24151   57.20102  9.55%     -    1s
     0     0   57.20113    0  580   63.24151   57.20113  9.55%     -    1s
     0     0   57.20113    0  537   63.24151   57.20113  9.55%     -    1s
     0     2   57.20465    0  537   63.24151   57.20465  9.55%     -    2s

Cutting planes:
  Gomory: 12
  Zero half: 87
  RLT: 68

Explored 124 nodes (28785 simplex iterations) in 2.50 seconds (1.58 work units)
Thread count was 32 (of 128 available processors)

Solution count 5: 63.2415 63.902 73.1119 ... 275.724

Optimal solution found (tolerance 1.00e-04)
Best objective 6.324150854663e+01, best bound 6.324150854663e+01, gap 0.0000%
